20191231 68700.00 55600.00
20180502 68700.00 54500.00
20171108 67674.40 55441.13
20170412 67674.40 54147.73
20170112 67674.40 52103.71
20160926 67674.40 42103.71
20160425 33837.20 19518.35
20160112 33837.20 19246.97
